67
1 0 8
2 0 7
2 1 32
3 0 6
3 1 38
3 2 39
4 0 33
4 1 26
4 2 17
4 3 27
5 0 7
5 1 11
5 2 8
5 3 7
5 4 26
6 0 32
6 1 6
6 2 8
6 3 22
6 4 13
6 5 17
7 0 23
7 1 13
7 2 25
7 3 28
7 4 20
7 5 5
7 6 2
8 0 14
8 1 10
8 2 13
8 3 34
8 4 37
8 5 37
8 6 23
8 7 17
9 0 23
9 1 22
9 2 25
9 3 3
9 4 18
9 5 2
9 6 30
9 7 29
9 8 32
10 0 40
10 1 3
10 2 36
10 3 12
10 4 26
10 5 32
10 6 11
10 7 12
10 8 5
10 9 7
11 0 9
11 1 34
11 2 25
11 3 28
11 4 32
11 5 40
11 6 39
11 7 30
11 8 8
11 9 35
11 10 2
12 0 7
12 1 28
12 2 40
12 3 20
12 4 38
12 5 16
12 6 3
12 7 12
12 8 40
12 9 28
12 10 35
12 11 33
13 0 9
13 1 30
13 2 25
13 3 12
13 4 32
13 5 27
13 6 4
13 7 10
13 8 29
13 9 22
13 10 12
13 11 30
13 12 38
14 0 27
14 1 15
14 2 9
14 3 16
14 4 15
14 5 20
14 6 22
14 7 11
14 8 2
14 9 8
14 10 40
14 11 33
14 12 2
14 13 39
15 0 9
15 1 33
15 2 1
15 3 2
15 4 10
15 5 20
15 6 14
15 7 14
15 8 19
15 9 11
15 10 7
15 11 8
15 12 18
15 13 40
15 14 37
16 0 17
16 1 32
16 2 16
16 3 17
16 4 35
16 5 2
16 6 24
16 7 40
16 8 9
16 9 7
16 10 16
16 11 40
16 12 38
16 13 21
16 14 23
16 15 4
17 0 29
17 1 36
17 2 5
17 3 29
17 4 16
17 5 18
17 6 13
17 7 30
17 8 25
17 9 16
17 10 9
17 11 18
17 12 33
17 13 35
17 14 34
17 15 3
17 16 23
18 0 6
18 1 3
18 2 31
18 3 4
18 4 9
18 5 2
18 6 16
18 7 16
18 8 32
18 9 28
18 10 34
18 11 35
18 12 18
18 13 29
18 14 30
18 15 33
18 16 8
18 17 28
19 0 23
19 1 4
19 2 15
19 3 39
19 4 19
19 5 19
19 6 27
19 7 30
19 8 31
19 9 36
19 10 26
19 11 26
19 12 22
19 13 36
19 14 7
19 15 12
19 16 31
19 17 37
19 18 27
20 0 34
20 1 4
20 2 7
20 3 32
20 4 40
20 5 4
20 6 7
20 7 12
20 8 31
20 9 31
20 10 24
20 11 3
20 12 8
20 13 13
20 14 26
20 15 18
20 16 23
20 17 37
20 18 26
20 19 24
21 0 1
21 1 12
21 2 40
21 3 13
21 4 14
21 5 5
21 6 11
21 7 23
21 8 28
21 9 14
21 10 11
21 11 32
21 12 15
21 13 11
21 14 18
21 15 22
21 16 22
21 17 37
21 18 30
21 19 11
21 20 14
22 0 31
22 1 1
22 2 2
22 3 38
22 4 13
22 5 18
22 6 29
22 7 38
22 8 30
22 9 25
22 10 28
22 11 6
22 12 21
22 13 8
22 14 13
22 15 15
22 16 8
22 17 11
22 18 33
22 19 4
22 20 20
22 21 7
23 0 37
23 1 4
23 2 38
23 3 30
23 4 29
23 5 1
23 6 21
23 7 36
23 8 21
23 9 34
23 10 31
23 11 27
23 12 25
23 13 37
23 14 27
23 15 40
23 16 16
23 17 20
23 18 14
23 19 19
23 20 38
23 21 4
23 22 27
24 0 2
24 1 8
24 2 16
24 3 8
24 4 40
24 5 19
24 6 16
24 7 36
24 8 18
24 9 29
24 10 26
24 11 25
24 12 5
24 13 32
24 14 16
24 15 20
24 16 15
24 17 27
24 18 21
24 19 20
24 20 26
24 21 25
24 22 27
24 23 34
25 0 24
25 1 9
25 2 9
25 3 5
25 4 28
25 5 15
25 6 24
25 7 5
25 8 19
25 9 10
25 10 19
25 11 1
25 12 2
25 13 30
25 14 17
25 15 6
25 16 35
25 17 25
25 18 23
25 19 23
25 20 1
25 21 16
25 22 36
25 23 14
25 24 9
26 0 10
26 1 14
26 2 34
26 3 21
26 4 25
26 5 6
26 6 2
26 7 13
26 8 35
26 9 20
26 10 3
26 11 9
26 12 13
26 13 3
26 14 33
26 15 24
26 16 29
26 17 28
26 18 16
26 19 14
26 20 31
26 21 40
26 22 12
26 23 35
26 24 7
26 25 12
27 0 12
27 1 13
27 2 29
27 3 34
27 4 31
27 5 26
27 6 37
27 7 36
27 8 10
27 9 3
27 10 18
27 11 26
27 12 19
27 13 40
27 14 15
27 15 2
27 16 2
27 17 11
27 18 37
27 19 19
27 20 26
27 21 30
27 22 16
27 23 11
27 24 13
27 25 4
27 26 2
28 0 26
28 1 8
28 2 22
28 3 19
28 4 4
28 5 35
28 6 4
28 7 38
28 8 24
28 9 8
28 10 3
28 11 4
28 12 8
28 13 4
28 14 17
28 15 17
28 16 30
28 17 37
28 18 39
28 19 20
28 20 34
28 21 7
28 22 12
28 23 21
28 24 11
28 25 33
28 26 13
28 27 35
29 0 16
29 1 17
29 2 30
29 3 35
29 4 28
29 5 35
29 6 23
29 7 23
29 8 35
29 9 15
29 10 24
29 11 24
29 12 17
29 13 1
29 14 34
29 15 7
29 16 31
29 17 6
29 18 31
29 19 36
29 20 7
29 21 3
29 22 6
29 23 9
29 24 2
29 25 15
29 26 33
29 27 38
29 28 12
30 0 14
30 1 28
30 2 39
30 3 5
30 4 17
30 5 31
30 6 29
30 7 1
30 8 40
30 9 39
30 10 37
30 11 8
30 12 14
30 13 5
30 14 2
30 15 18
30 16 9
30 17 11
30 18 2
30 19 18
30 20 38
30 21 15
30 22 24
30 23 29
30 24 38
30 25 32
30 26 1
30 27 32
30 28 26
30 29 17
31 0 7
31 1 29
31 2 17
31 3 3
31 4 11
31 5 11
31 6 22
31 7 26
31 8 28
31 9 2
31 10 11
31 11 10
31 12 29
31 13 3
31 14 5
31 15 40
31 16 33
31 17 24
31 18 22
31 19 22
31 20 19
31 21 13
31 22 7
31 23 17
31 24 2
31 25 6
31 26 11
31 27 21
31 28 17
31 29 10
31 30 21
32 0 23
32 1 17
32 2 34
32 3 33
32 4 21
32 5 13
32 6 15
32 7 34
32 8 32
32 9 35
32 10 25
32 11 33
32 12 5
32 13 13
32 14 40
32 15 11
32 16 14
32 17 3
32 18 14
32 19 4
32 20 22
32 21 21
32 22 22
32 23 6
32 24 40
32 25 40
32 26 4
32 27 37
32 28 4
32 29 9
32 30 16
32 31 19
33 0 24
33 1 33
33 2 6
33 3 11
33 4 30
33 5 11
33 6 22
33 7 28
33 8 16
33 9 29
33 10 37
33 11 25
33 12 18
33 13 27
33 14 30
33 15 2
33 16 6
33 17 38
33 18 33
33 19 26
33 20 32
33 21 37
33 22 17
33 23 5
33 24 35
33 25 31
33 26 2
33 27 12
33 28 21
33 29 6
33 30 2
33 31 12
33 32 22
34 0 27
34 1 3
34 2 37
34 3 4
34 4 1
34 5 17
34 6 6
34 7 14
34 8 22
34 9 14
34 10 36
34 11 8
34 12 29
34 13 14
34 14 27
34 15 1
34 16 40
34 17 23
34 18 3
34 19 16
34 20 18
34 21 6
34 22 33
34 23 23
34 24 28
34 25 3
34 26 31
34 27 30
34 28 39
34 29 26
34 30 24
34 31 5
34 32 36
34 33 40
35 0 29
35 1 17
35 2 35
35 3 40
35 4 14
35 5 9
35 6 34
35 7 20
35 8 19
35 9 13
35 10 34
35 11 37
35 12 35
35 13 9
35 14 25
35 15 21
35 16 29
35 17 37
35 18 18
35 19 32
35 20 29
35 21 7
35 22 24
35 23 37
35 24 2
35 25 26
35 26 7
35 27 11
35 28 3
35 29 24
35 30 18
35 31 6
35 32 33
35 33 37
35 34 32
36 0 26
36 1 39
36 2 2
36 3 32
36 4 38
36 5 13
36 6 28
36 7 6
36 8 26
36 9 10
36 10 19
36 11 18
36 12 35
36 13 35
36 14 10
36 15 6
36 16 8
36 17 19
36 18 6
36 19 3
36 20 34
36 21 25
36 22 40
36 23 7
36 24 18
36 25 39
36 26 26
36 27 28
36 28 19
36 29 39
36 30 9
36 31 34
36 32 36
36 33 24
36 34 14
36 35 23
37 0 12
37 1 31
37 2 36
37 3 39
37 4 27
37 5 23
37 6 38
37 7 27
37 8 1
37 9 6
37 10 25
37 11 1
37 12 34
37 13 18
37 14 19
37 15 38
37 16 18
37 17 5
37 18 11
37 19 33
37 20 6
37 21 23
37 22 14
37 23 34
37 24 20
37 25 39
37 26 3
37 27 24
37 28 19
37 29 5
37 30 37
37 31 30
37 32 40
37 33 4
37 34 13
37 35 11
37 36 40
38 0 17
38 1 3
38 2 25
38 3 19
38 4 33
38 5 16
38 6 15
38 7 35
38 8 37
38 9 15
38 10 29
38 11 29
38 12 30
38 13 27
38 14 33
38 15 23
38 16 20
38 17 2
38 18 16
38 19 15
38 20 40
38 21 18
38 22 23
38 23 3
38 24 6
38 25 35
38 26 32
38 27 9
38 28 33
38 29 34
38 30 3
38 31 14
38 32 14
38 33 23
38 34 40
38 35 27
38 36 15
38 37 1
39 0 20
39 1 33
39 2 28
39 3 9
39 4 37
39 5 34
39 6 29
39 7 35
39 8 1
39 9 9
39 10 5
39 11 11
39 12 16
39 13 26
39 14 4
39 15 10
39 16 23
39 17 15
39 18 17
39 19 17
39 20 17
39 21 36
39 22 6
39 23 40
39 24 29
39 25 5
39 26 16
39 27 10
39 28 17
39 29 2
39 30 30
39 31 39
39 32 14
39 33 27
39 34 14
39 35 22
39 36 20
39 37 5
39 38 25
40 0 2
40 1 39
40 2 28
40 3 2
40 4 24
40 5 1
40 6 11
40 7 21
40 8 18
40 9 6
40 10 34
40 11 11
40 12 34
40 13 40
40 14 19
40 15 16
40 16 25
40 17 20
40 18 14
40 19 23
40 20 38
40 21 28
40 22 31
40 23 34
40 24 22
40 25 28
40 26 28
40 27 28
40 28 37
40 29 14
40 30 37
40 31 31
40 32 32
40 33 9
40 34 23
40 35 18
40 36 24
40 37 37
40 38 18
40 39 8
41 0 32
41 1 1
41 2 30
41 3 35
41 4 17
41 5 37
41 6 35
41 7 14
41 8 38
41 9 35
41 10 18
41 11 3
41 12 19
41 13 13
41 14 29
41 15 40
41 16 38
41 17 29
41 18 14
41 19 9
41 20 31
41 21 21
41 22 21
41 23 32
41 24 37
41 25 31
41 26 16
41 27 20
41 28 30
41 29 23
41 30 20
41 31 3
41 32 32
41 33 16
41 34 1
41 35 35
41 36 10
41 37 5
41 38 21
41 39 28
41 40 16
42 0 38
42 1 10
42 2 35
42 3 18
42 4 36
42 5 20
42 6 6
42 7 1
42 8 14
42 9 9
42 10 20
42 11 14
42 12 34
42 13 3
42 14 33
42 15 19
42 16 19
42 17 21
42 18 31
42 19 14
42 20 29
42 21 36
42 22 23
42 23 25
42 24 19
42 25 6
42 26 22
42 27 10
42 28 14
42 29 2
42 30 18
42 31 23
42 32 37
42 33 37
42 34 1
42 35 11
42 36 19
42 37 5
42 38 19
42 39 10
42 40 24
42 41 37
43 0 19
43 1 27
43 2 7
43 3 19
43 4 2
43 5 22
43 6 16
43 7 5
43 8 26
43 9 15
43 10 33
43 11 40
43 12 39
43 13 2
43 14 32
43 15 2
43 16 17
43 17 39
43 18 26
43 19 12
43 20 12
43 21 4
43 22 17
43 23 32
43 24 4
43 25 39
43 26 39
43 27 4
43 28 30
43 29 24
43 30 6
43 31 38
43 32 1
43 33 16
43 34 34
43 35 11
43 36 3
43 37 12
43 38 14
43 39 37
43 40 30
43 41 17
43 42 16
44 0 7
44 1 34
44 2 11
44 3 27
44 4 2
44 5 23
44 6 25
44 7 31
44 8 10
44 9 3
44 10 22
44 11 37
44 12 11
44 13 24
44 14 9
44 15 25
44 16 10
44 17 27
44 18 22
44 19 22
44 20 27
44 21 11
44 22 27
44 23 3
44 24 24
44 25 12
44 26 28
44 27 5
44 28 10
44 29 12
44 30 23
44 31 18
44 32 20
44 33 14
44 34 38
44 35 22
44 36 30
44 37 1
44 38 34
44 39 23
44 40 38
44 41 6
44 42 15
44 43 8
45 0 33
45 1 14
45 2 2
45 3 14
45 4 27
45 5 12
45 6 34
45 7 30
45 8 7
45 9 2
45 10 6
45 11 17
45 12 3
45 13 16
45 14 24
45 15 1
45 16 36
45 17 23
45 18 17
45 19 38
45 20 30
45 21 34
45 22 37
45 23 19
45 24 38
45 25 9
45 26 29
45 27 13
45 28 11
45 29 32
45 30 30
45 31 27
45 32 32
45 33 36
45 34 38
45 35 6
45 36 25
45 37 20
45 38 20
45 39 20
45 40 7
45 41 9
45 42 32
45 43 4
45 44 27
46 0 26
46 1 23
46 2 10
46 3 2
46 4 10
46 5 32
46 6 3
46 7 14
46 8 3
46 9 14
46 10 20
46 11 22
46 12 14
46 13 25
46 14 13
46 15 1
46 16 28
46 17 24
46 18 36
46 19 15
46 20 37
46 21 27
46 22 23
46 23 16
46 24 14
46 25 26
46 26 29
46 27 39
46 28 8
46 29 35
46 30 18
46 31 26
46 32 14
46 33 32
46 34 10
46 35 4
46 36 35
46 37 33
46 38 32
46 39 10
46 40 30
46 41 14
46 42 40
46 43 17
46 44 34
46 45 6
47 0 3
47 1 28
47 2 6
47 3 15
47 4 35
47 5 19
47 6 26
47 7 6
47 8 3
47 9 10
47 10 20
47 11 21
47 12 37
47 13 10
47 14 9
47 15 32
47 16 15
47 17 19
47 18 13
47 19 38
47 20 8
47 21 26
47 22 9
47 23 30
47 24 6
47 25 29
47 26 34
47 27 8
47 28 9
47 29 16
47 30 28
47 31 40
47 32 36
47 33 16
47 34 29
47 35 39
47 36 20
47 37 24
47 38 12
47 39 18
47 40 17
47 41 12
47 42 24
47 43 12
47 44 24
47 45 6
47 46 36
48 0 1
48 1 25
48 2 29
48 3 5
48 4 9
48 5 13
48 6 17
48 7 30
48 8 35
48 9 28
48 10 19
48 11 1
48 12 38
48 13 22
48 14 2
48 15 37
48 16 36
48 17 6
48 18 35
48 19 20
48 20 30
48 21 40
48 22 35
48 23 16
48 24 23
48 25 3
48 26 19
48 27 29
48 28 39
48 29 27
48 30 40
48 31 21
48 32 2
48 33 12
48 34 37
48 35 28
48 36 2
48 37 17
48 38 5
48 39 38
48 40 18
48 41 39
48 42 16
48 43 4
48 44 23
48 45 40
48 46 29
48 47 37
49 0 21
49 1 32
49 2 10
49 3 20
49 4 13
49 5 10
49 6 32
49 7 11
49 8 20
49 9 27
49 10 16
49 11 30
49 12 16
49 13 33
49 14 14
49 15 21
49 16 9
49 17 11
49 18 23
49 19 24
49 20 8
49 21 5
49 22 12
49 23 32
49 24 25
49 25 33
49 26 20
49 27 15
49 28 29
49 29 24
49 30 15
49 31 40
49 32 17
49 33 27
49 34 3
49 35 6
49 36 21
49 37 12
49 38 11
49 39 15
49 40 39
49 41 15
49 42 10
49 43 30
49 44 1
49 45 2
49 46 32
49 47 31
49 48 27
50 0 21
50 1 39
50 2 16
50 3 22
50 4 18
50 5 16
50 6 6
50 7 11
50 8 32
50 9 36
50 10 4
50 11 27
50 12 31
50 13 21
50 14 22
50 15 32
50 16 39
50 17 5
50 18 25
50 19 11
50 20 29
50 21 17
50 22 32
50 23 20
50 24 13
50 25 28
50 26 20
50 27 38
50 28 34
50 29 38
50 30 7
50 31 10
50 32 24
50 33 5
50 34 10
50 35 3
50 36 3
50 37 20
50 38 3
50 39 38
50 40 27
50 41 23
50 42 33
50 43 11
50 44 32
50 45 2
50 46 29
50 47 23
50 48 29
50 49 15
51 0 12
51 1 22
51 2 38
51 3 23
51 4 21
51 5 8
51 6 37
51 7 35
51 8 28
51 9 30
51 10 33
51 11 12
51 12 36
51 13 16
51 14 39
51 15 27
51 16 5
51 17 28
51 18 35
51 19 13
51 20 17
51 21 32
51 22 28
51 23 19
51 24 35
51 25 32
51 26 7
51 27 10
51 28 25
51 29 10
51 30 39
51 31 35
51 32 6
51 33 8
51 34 32
51 35 3
51 36 2
51 37 29
51 38 18
51 39 6
51 40 25
51 41 14
51 42 39
51 43 4
51 44 35
51 45 3
51 46 19
51 47 34
51 48 12
51 49 7
51 50 8
52 0 6
52 1 4
52 2 19
52 3 7
52 4 8
52 5 27
52 6 35
52 7 2
52 8 26
52 9 34
52 10 28
52 11 18
52 12 27
52 13 5
52 14 38
52 15 33
52 16 12
52 17 22
52 18 6
52 19 10
52 20 6
52 21 10
52 22 1
52 23 7
52 24 16
52 25 9
52 26 26
52 27 30
52 28 8
52 29 30
52 30 6
52 31 15
52 32 26
52 33 20
52 34 40
52 35 27
52 36 2
52 37 10
52 38 14
52 39 22
52 40 38
52 41 33
52 42 10
52 43 31
52 44 28
52 45 23
52 46 8
52 47 29
52 48 20
52 49 18
52 50 38
52 51 12
53 0 25
53 1 36
53 2 11
53 3 20
53 4 30
53 5 21
53 6 34
53 7 22
53 8 31
53 9 22
53 10 33
53 11 3
53 12 33
53 13 36
53 14 28
53 15 24
53 16 39
53 17 21
53 18 13
53 19 15
53 20 35
53 21 10
53 22 19
53 23 39
53 24 28
53 25 26
53 26 1
53 27 28
53 28 27
53 29 33
53 30 31
53 31 21
53 32 14
53 33 22
53 34 27
53 35 30
53 36 11
53 37 16
53 38 23
53 39 11
53 40 31
53 41 13
53 42 4
53 43 27
53 44 39
53 45 37
53 46 4
53 47 22
53 48 12
53 49 34
53 50 35
53 51 38
53 52 6
54 0 18
54 1 5
54 2 35
54 3 5
54 4 29
54 5 2
54 6 40
54 7 22
54 8 27
54 9 20
54 10 9
54 11 1
54 12 8
54 13 34
54 14 28
54 15 22
54 16 31
54 17 36
54 18 11
54 19 23
54 20 23
54 21 12
54 22 33
54 23 19
54 24 36
54 25 34
54 26 27
54 27 33
54 28 10
54 29 5
54 30 2
54 31 14
54 32 34
54 33 3
54 34 17
54 35 1
54 36 32
54 37 15
54 38 6
54 39 20
54 40 19
54 41 2
54 42 21
54 43 7
54 44 15
54 45 14
54 46 25
54 47 16
54 48 17
54 49 38
54 50 10
54 51 27
54 52 4
54 53 8
55 0 24
55 1 34
55 2 12
55 3 25
55 4 4
55 5 24
55 6 2
55 7 1
55 8 3
55 9 35
55 10 14
55 11 5
55 12 11
55 13 40
55 14 35
55 15 16
55 16 19
55 17 12
55 18 22
55 19 12
55 20 28
55 21 4
55 22 16
55 23 21
55 24 28
55 25 39
55 26 9
55 27 30
55 28 31
55 29 20
55 30 19
55 31 35
55 32 6
55 33 19
55 34 5
55 35 40
55 36 15
55 37 34
55 38 1
55 39 13
55 40 20
55 41 31
55 42 28
55 43 3
55 44 39
55 45 2
55 46 18
55 47 33
55 48 21
55 49 10
55 50 16
55 51 1
55 52 27
55 53 31
55 54 38
56 0 21
56 1 13
56 2 20
56 3 27
56 4 9
56 5 22
56 6 13
56 7 16
56 8 26
56 9 39
56 10 27
56 11 9
56 12 17
56 13 36
56 14 38
56 15 1
56 16 21
56 17 13
56 18 29
56 19 40
56 20 17
56 21 20
56 22 21
56 23 31
56 24 20
56 25 14
56 26 37
56 27 7
56 28 31
56 29 15
56 30 28
56 31 15
56 32 4
56 33 26
56 34 11
56 35 11
56 36 3
56 37 39
56 38 12
56 39 4
56 40 35
56 41 14
56 42 22
56 43 37
56 44 2
56 45 7
56 46 12
56 47 11
56 48 26
56 49 16
56 50 35
56 51 39
56 52 18
56 53 28
56 54 40
56 55 15
57 0 16
57 1 1
57 2 3
57 3 4
57 4 32
57 5 3
57 6 33
57 7 4
57 8 24
57 9 33
57 10 22
57 11 34
57 12 23
57 13 16
57 14 7
57 15 31
57 16 2
57 17 30
57 18 32
57 19 9
57 20 26
57 21 18
57 22 7
57 23 30
57 24 11
57 25 34
57 26 32
57 27 20
57 28 3
57 29 23
57 30 9
57 31 19
57 32 18
57 33 3
57 34 28
57 35 35
57 36 37
57 37 38
57 38 20
57 39 3
57 40 31
57 41 24
57 42 18
57 43 6
57 44 28
57 45 24
57 46 16
57 47 37
57 48 21
57 49 10
57 50 33
57 51 10
57 52 25
57 53 36
57 54 29
57 55 29
57 56 15
58 0 21
58 1 15
58 2 36
58 3 28
58 4 32
58 5 39
58 6 11
58 7 18
58 8 28
58 9 30
58 10 38
58 11 21
58 12 14
58 13 15
58 14 7
58 15 32
58 16 21
58 17 33
58 18 1
58 19 32
58 20 7
58 21 33
58 22 36
58 23 23
58 24 37
58 25 17
58 26 31
58 27 30
58 28 6
58 29 30
58 30 40
58 31 10
58 32 16
58 33 28
58 34 19
58 35 6
58 36 1
58 37 39
58 38 20
58 39 40
58 40 18
58 41 6
58 42 6
58 43 13
58 44 13
58 45 9
58 46 21
58 47 4
58 48 22
58 49 11
58 50 39
58 51 27
58 52 1
58 53 30
58 54 6
58 55 5
58 56 11
58 57 34
59 0 19
59 1 8
59 2 28
59 3 32
59 4 17
59 5 17
59 6 37
59 7 1
59 8 33
59 9 25
59 10 16
59 11 34
59 12 29
59 13 18
59 14 15
59 15 27
59 16 37
59 17 16
59 18 35
59 19 39
59 20 40
59 21 11
59 22 11
59 23 35
59 24 22
59 25 15
59 26 24
59 27 34
59 28 27
59 29 33
59 30 23
59 31 26
59 32 16
59 33 17
59 34 10
59 35 34
59 36 12
59 37 22
59 38 20
59 39 23
59 40 10
59 41 22
59 42 35
59 43 39
59 44 32
59 45 28
59 46 24
59 47 34
59 48 32
59 49 1
59 50 20
59 51 20
59 52 27
59 53 39
59 54 18
59 55 11
59 56 27
59 57 8
59 58 18
60 0 38
60 1 21
60 2 35
60 3 16
60 4 23
60 5 16
60 6 2
60 7 7
60 8 18
60 9 27
60 10 13
60 11 33
60 12 23
60 13 8
60 14 21
60 15 27
60 16 15
60 17 10
60 18 9
60 19 27
60 20 36
60 21 31
60 22 27
60 23 22
60 24 25
60 25 2
60 26 37
60 27 15
60 28 20
60 29 8
60 30 21
60 31 24
60 32 1
60 33 3
60 34 37
60 35 34
60 36 20
60 37 21
60 38 31
60 39 35
60 40 16
60 41 38
60 42 16
60 43 13
60 44 2
60 45 26
60 46 7
60 47 27
60 48 29
60 49 28
60 50 33
60 51 39
60 52 24
60 53 31
60 54 30
60 55 25
60 56 38
60 57 25
60 58 28
60 59 8
61 0 33
61 1 4
61 2 28
61 3 34
61 4 5
61 5 22
61 6 1
61 7 6
61 8 12
61 9 16
61 10 11
61 11 10
61 12 33
61 13 3
61 14 10
61 15 24
61 16 33
61 17 22
61 18 4
61 19 31
61 20 4
61 21 10
61 22 30
61 23 4
61 24 6
61 25 39
61 26 26
61 27 39
61 28 32
61 29 9
61 30 26
61 31 21
61 32 31
61 33 3
61 34 2
61 35 14
61 36 6
61 37 12
61 38 20
61 39 37
61 40 34
61 41 25
61 42 5
61 43 1
61 44 40
61 45 4
61 46 6
61 47 31
61 48 14
61 49 7
61 50 32
61 51 17
61 52 3
61 53 38
61 54 15
61 55 12
61 56 10
61 57 12
61 58 25
61 59 38
61 60 5
62 0 17
62 1 35
62 2 25
62 3 38
62 4 34
62 5 28
62 6 35
62 7 39
62 8 14
62 9 33
62 10 27
62 11 31
62 12 9
62 13 28
62 14 11
62 15 10
62 16 19
62 17 38
62 18 35
62 19 24
62 20 22
62 21 21
62 22 35
62 23 18
62 24 3
62 25 12
62 26 36
62 27 32
62 28 29
62 29 27
62 30 15
62 31 17
62 32 1
62 33 3
62 34 38
62 35 1
62 36 25
62 37 20
62 38 13
62 39 4
62 40 27
62 41 24
62 42 4
62 43 20
62 44 2
62 45 5
62 46 26
62 47 37
62 48 24
62 49 8
62 50 15
62 51 4
62 52 35
62 53 8
62 54 28
62 55 10
62 56 27
62 57 4
62 58 27
62 59 36
62 60 31
62 61 19
63 0 36
63 1 23
63 2 10
63 3 21
63 4 20
63 5 22
63 6 18
63 7 38
63 8 1
63 9 33
63 10 29
63 11 18
63 12 25
63 13 4
63 14 7
63 15 2
63 16 38
63 17 10
63 18 3
63 19 32
63 20 17
63 21 29
63 22 36
63 23 13
63 24 5
63 25 25
63 26 38
63 27 15
63 28 9
63 29 32
63 30 37
63 31 8
63 32 21
63 33 34
63 34 18
63 35 33
63 36 9
63 37 36
63 38 25
63 39 3
63 40 9
63 41 35
63 42 28
63 43 34
63 44 28
63 45 6
63 46 9
63 47 29
63 48 18
63 49 10
63 50 8
63 51 5
63 52 16
63 53 24
63 54 16
63 55 39
63 56 21
63 57 30
63 58 21
63 59 20
63 60 18
63 61 29
63 62 36
64 0 22
64 1 38
64 2 30
64 3 9
64 4 1
64 5 21
64 6 9
64 7 9
64 8 14
64 9 18
64 10 22
64 11 5
64 12 5
64 13 10
64 14 31
64 15 38
64 16 31
64 17 14
64 18 24
64 19 13
64 20 32
64 21 9
64 22 2
64 23 19
64 24 21
64 25 30
64 26 29
64 27 1
64 28 27
64 29 38
64 30 33
64 31 9
64 32 25
64 33 38
64 34 37
64 35 3
64 36 12
64 37 18
64 38 11
64 39 11
64 40 26
64 41 40
64 42 20
64 43 2
64 44 12
64 45 5
64 46 16
64 47 19
64 48 7
64 49 6
64 50 27
64 51 12
64 52 25
64 53 33
64 54 21
64 55 1
64 56 30
64 57 20
64 58 18
64 59 16
64 60 31
64 61 14
64 62 3
64 63 21
65 0 31
65 1 32
65 2 4
65 3 23
65 4 4
65 5 15
65 6 16
65 7 15
65 8 1
65 9 7
65 10 26
65 11 27
65 12 2
65 13 16
65 14 30
65 15 32
65 16 6
65 17 40
65 18 11
65 19 37
65 20 22
65 21 19
65 22 18
65 23 7
65 24 21
65 25 35
65 26 25
65 27 14
65 28 8
65 29 33
65 30 7
65 31 40
65 32 21
65 33 29
65 34 38
65 35 39
65 36 32
65 37 5
65 38 13
65 39 40
65 40 32
65 41 34
65 42 5
65 43 21
65 44 21
65 45 34
65 46 29
65 47 6
65 48 2
65 49 9
65 50 26
65 51 8
65 52 19
65 53 11
65 54 6
65 55 25
65 56 39
65 57 25
65 58 22
65 59 29
65 60 36
65 61 16
65 62 17
65 63 30
65 64 20
66 0 9
66 1 1
66 2 20
66 3 34
66 4 25
66 5 8
66 6 38
66 7 10
66 8 34
66 9 6
66 10 5
66 11 15
66 12 16
66 13 12
66 14 16
66 15 11
66 16 27
66 17 16
66 18 37
66 19 10
66 20 21
66 21 32
66 22 3
66 23 7
66 24 28
66 25 3
66 26 38
66 27 6
66 28 17
66 29 30
66 30 13
66 31 16
66 32 23
66 33 26
66 34 32
66 35 19
66 36 7
66 37 18
66 38 27
66 39 29
66 40 12
66 41 38
66 42 5
66 43 23
66 44 18
66 45 19
66 46 20
66 47 7
66 48 5
66 49 12
66 50 38
66 51 22
66 52 4
66 53 11
66 54 26
66 55 6
66 56 20
66 57 22
66 58 13
66 59 23
66 60 38
66 61 17
66 62 37
66 63 30
66 64 6
66 65 34
